presolving:
(round 1, fast)       2696 del vars, 4026 del conss, 0 add conss, 23484 chg bounds, 24792 chg sides, 23760 chg coeffs, 0 upgd conss, 0 impls, 1450 clqs
(round 2, fast)       2699 del vars, 6786 del conss, 0 add conss, 23484 chg bounds, 24792 chg sides, 23760 chg coeffs, 0 upgd conss, 0 impls, 1449 clqs
   (0.3s) running MILP presolver
   (0.3s) MILP presolver found nothing
(round 3, exhaustive) 2699 del vars, 6786 del conss, 0 add conss, 23484 chg bounds, 24792 chg sides, 23760 chg coeffs, 25253 upgd conss, 0 impls, 1449 clqs
   (0.7s) probing: 51/4504 (1.1%) - 0 fixings, 0 aggregations, 0 implications, 0 bound changes
   (0.7s) probing aborted: 50/50 successive totally useless probings
   (0.7s) symmetry computation started: requiring (bin +, int -, cont +), (fixed: bin -, int +, cont -)
   (2.9s) symmetry computation finished: 1500 generators found (max: 1500, log10 of symmetry group size: 924.8)
   (2.9s) no symmetry on binary variables present.
(round 4, exhaustive) 2699 del vars, 6786 del conss, 5250 add conss, 23484 chg bounds, 24792 chg sides, 23781 chg coeffs, 25253 upgd conss, 20790 impls, 1449 clqs
presolving (5 rounds: 5 fast, 3 medium, 3 exhaustive):
 2699 deleted vars, 6786 deleted constraints, 5250 added constraints, 23484 tightened bounds, 0 added holes, 24792 changed sides, 23781 changed coefficients
 20790 implications, 1449 cliques
presolved problem has 25294 variables (4504 bin, 0 int, 0 impl, 20790 cont) and 33473 constraints
  20790 constraints of type <varbound>
     44 constraints of type <knapsack>
   1449 constraints of type <setppc>
   8220 constraints of type <linear>
   2970 constraints of type <logicor>
Presolving Time: 5.46

 time | node  | left  |LP iter|LP it/n|mem/heur|mdpt |vars |cons |rows |cuts |sepa|confs|strbr|  dualbound   | primalbound  |  gap   | compl. 
  8.4s|     1 |     0 | 25368 |     - |   265M |   0 |  25k|  33k|  28k|   0 |  0 |  56 |   0 |-2.837621e+04 |      --      |    Inf | unknown
r 8.7s|     1 |     0 | 25368 |     - |shifting|   0 |  25k|  33k|  28k|   0 |  0 |  56 |   0 |-2.837621e+04 |-6.475300e+04 | 128.19%| unknown
 14.6s|     1 |     0 | 44087 |     - |   273M |   0 |  25k|  33k|  17k|  13 |  1 |  56 |   0 |-3.164725e+04 |-6.475300e+04 | 104.61%| unknown
i14.9s|     1 |     0 | 47269 |     - |  oneopt|   0 |  25k|  33k|  17k|  13 |  1 |  56 |   0 |-3.164725e+04 |-6.264600e+04 |  97.95%| unknown
 15.7s|     1 |     0 | 48885 |     - |   284M |   0 |  25k|  33k|9307 |  26 |  2 |  56 |   0 |-3.243742e+04 |-6.264600e+04 |  93.13%| unknown
 16.7s|     1 |     0 | 49534 |     - |   290M |   0 |  25k|  33k|7476 |  43 |  3 |  56 |   0 |-3.261592e+04 |-6.264600e+04 |  92.07%| unknown
 17.4s|     1 |     0 | 49832 |     - |   298M |   0 |  25k|  33k|7488 |  55 |  4 |  56 |   0 |-3.271300e+04 |-6.264600e+04 |  91.50%| unknown
 18.3s|     1 |     0 | 50322 |     - |   304M |   0 |  25k|  33k|7500 |  67 |  5 |  56 |   0 |-3.282629e+04 |-6.264600e+04 |  90.84%| unknown
 19.2s|     1 |     0 | 50749 |     - |   309M |   0 |  25k|  33k|7515 |  82 |  6 |  56 |   0 |-3.291915e+04 |-6.264600e+04 |  90.30%| unknown
 20.0s|     1 |     0 | 51076 |     - |   316M |   0 |  25k|  33k|7530 |  97 |  7 |  56 |   0 |-3.296839e+04 |-6.264600e+04 |  90.02%| unknown
 20.9s|     1 |     0 | 51275 |     - |   323M |   0 |  25k|  33k|7541 | 108 |  8 |  56 |   0 |-3.299860e+04 |-6.264600e+04 |  89.84%| unknown
 21.8s|     1 |     0 | 51612 |     - |   329M |   0 |  25k|  33k|7551 | 118 |  9 |  56 |   0 |-3.305481e+04 |-6.264600e+04 |  89.52%| unknown
 22.9s|     1 |     0 | 51873 |     - |   337M |   0 |  25k|  33k|7561 | 128 | 10 |  56 |   0 |-3.310081e+04 |-6.264600e+04 |  89.26%| unknown
 23.3s|     1 |     0 | 52248 |     - |   338M |   0 |  25k|  33k|7571 | 138 | 11 |  56 |   0 |-3.316424e+04 |-6.264600e+04 |  88.90%| unknown
 23.6s|     1 |     0 | 52386 |     - |   338M |   0 |  25k|  33k|7577 | 144 | 12 |  56 |   0 |-3.321221e+04 |-6.264600e+04 |  88.62%| unknown
 time | node  | left  |LP iter|LP it/n|mem/heur|mdpt |vars |cons |rows |cuts |sepa|confs|strbr|  dualbound   | primalbound  |  gap   | compl. 
 23.9s|     1 |     0 | 52508 |     - |   339M |   0 |  25k|  33k|7582 | 149 | 13 |  56 |   0 |-3.324812e+04 |-6.264600e+04 |  88.42%| unknown
 24.3s|     1 |     0 | 52607 |     - |   340M |   0 |  25k|  33k|7580 | 151 | 14 |  56 |   0 |-3.326212e+04 |-6.264600e+04 |  88.34%| unknown
 24.6s|     1 |     0 | 52644 |     - |   341M |   0 |  25k|  33k|7582 | 153 | 15 |  56 |   0 |-3.326581e+04 |-6.264600e+04 |  88.32%| unknown
 24.9s|     1 |     0 | 52980 |     - |   341M |   0 |  25k|  33k|7589 | 160 | 16 |  56 |   0 |-3.330957e+04 |-6.264600e+04 |  88.07%| unknown
 25.2s|     1 |     0 | 53114 |     - |   341M |   0 |  25k|  33k|7591 | 162 | 17 |  56 |   0 |-3.332639e+04 |-6.264600e+04 |  87.98%| unknown
 25.5s|     1 |     0 | 53190 |     - |   342M |   0 |  25k|  33k|7593 | 164 | 18 |  56 |   0 |-3.333380e+04 |-6.264600e+04 |  87.94%| unknown
 25.9s|     1 |     0 | 53379 |     - |   343M |   0 |  25k|  33k|7596 | 167 | 19 |  56 |   0 |-3.334730e+04 |-6.264600e+04 |  87.86%| unknown
 26.2s|     1 |     0 | 53459 |     - |   344M |   0 |  25k|  33k|7597 | 169 | 20 |  56 |   0 |-3.335096e+04 |-6.264600e+04 |  87.84%| unknown
 26.5s|     1 |     0 | 53459 |     - |   344M |   0 |  25k|4463 |7597 | 169 | 22 |  56 |   0 |-3.335096e+04 |-6.264600e+04 |  87.84%| unknown
 26.7s|     1 |     0 | 53498 |     - |   344M |   0 |  25k|4463 |7598 | 170 | 23 |  56 |   0 |-3.335270e+04 |-6.264600e+04 |  87.83%| unknown
 26.9s|     1 |     0 | 53534 |     - |   344M |   0 |  25k|4463 |7599 | 171 | 24 |  56 |   0 |-3.335329e+04 |-6.264600e+04 |  87.83%| unknown
 27.1s|     1 |     0 | 53570 |     - |   344M |   0 |  25k|4463 |7600 | 172 | 25 |  56 |   0 |-3.335364e+04 |-6.264600e+04 |  87.82%| unknown
 27.4s|     1 |     0 | 53594 |     - |   344M |   0 |  25k|4463 |7601 | 173 | 26 |  56 |   0 |-3.335379e+04 |-6.264600e+04 |  87.82%| unknown
 27.7s|     1 |     0 | 53667 |     - |   344M |   0 |  25k|4463 |7603 | 175 | 27 |  56 |   0 |-3.335447e+04 |-6.264600e+04 |  87.82%| unknown
 28.0s|     1 |     0 | 53693 |     - |   344M |   0 |  25k|4463 |7582 | 176 | 28 |  56 |   0 |-3.335501e+04 |-6.264600e+04 |  87.82%| unknown
 time | node  | left  |LP iter|LP it/n|mem/heur|mdpt |vars |cons |rows |cuts |sepa|confs|strbr|  dualbound   | primalbound  |  gap   | compl. 
d30.4s|     1 |     0 | 56859 |     - |farkasdi|   0 |  25k|4463 |7582 |   0 | 30 |  56 |   0 |-3.335501e+04 |-3.765000e+04 |  12.88%| unknown
L33.3s|     1 |     0 | 59403 |     - |    rens|   0 |  25k|4464 |7582 | 176 | 30 |  57 |   0 |-3.335501e+04 |-3.744600e+04 |  12.27%| unknown
(run 1, node 1) restarting after 2970 global fixings of integer variables

(restart) converted 148 cuts from the global cut pool into linear constraints

presolving:
(round 1, fast)       23760 del vars, 0 del conss, 0 add conss, 0 chg bounds, 0 chg sides, 2970 chg coeffs, 0 upgd conss, 20790 impls, 4515 clqs
   (33.6s) running MILP presolver
   (33.6s) MILP presolver found nothing
(round 2, exhaustive) 23760 del vars, 0 del conss, 0 add conss, 0 chg bounds, 0 chg sides, 2970 chg coeffs, 134 upgd conss, 20790 impls, 4515 clqs
(round 3, medium)     23760 del vars, 4 del conss, 8 add conss, 0 chg bounds, 8 chg sides, 2990 chg coeffs, 134 upgd conss, 20790 impls, 4519 clqs
presolving (4 rounds: 4 fast, 3 medium, 2 exhaustive):
 23760 deleted vars, 4 deleted constraints, 8 added constraints, 0 tightened bounds, 0 added holes, 8 changed sides, 3024 changed coefficients
 20790 implications, 4519 cliques
presolved problem has 1534 variables (1534 bin, 0 int, 0 impl, 0 cont) and 4616 constraints
     78 constraints of type <knapsack>
   1553 constraints of type <setppc>
     15 constraints of type <linear>
   2970 constraints of type <logicor>
transformed objective value is always integral (scale: 1)
Presolving Time: 5.53
transformed 4/4 original solutions to the transformed problem space

 time | node  | left  |LP iter|LP it/n|mem/heur|mdpt |vars |cons |rows |cuts |sepa|confs|strbr|  dualbound   | primalbound  |  gap   | compl. 
 34.2s|     1 |     0 | 62992 |     - |   317M |   0 |1534 |4652 |4615 |   0 |  0 |  94 |   0 |-3.340183e+04 |-3.744600e+04 |  12.11%| unknown
 34.6s|     1 |     0 | 63152 |     - |   319M |   0 |1534 |4652 |4617 |   2 |  1 |  94 |   0 |-3.344097e+04 |-3.744600e+04 |  11.98%| unknown
 35.1s|     1 |     0 | 63324 |     - |   320M |   0 |1534 |4652 |4622 |   7 |  2 |  94 |   0 |-3.349129e+04 |-3.744600e+04 |  11.81%| unknown
 35.6s|     1 |     0 | 63482 |     - |   321M |   0 |1534 |4652 |4628 |  13 |  3 |  94 |   0 |-3.352714e+04 |-3.744600e+04 |  11.69%| unknown
 36.1s|     1 |     0 | 63678 |     - |   323M |   0 |1534 |4652 |4634 |  19 |  4 |  94 |   0 |-3.357249e+04 |-3.744600e+04 |  11.54%| unknown
 36.4s|     1 |     0 | 63905 |     - |   324M |   0 |1534 |4652 |4642 |  27 |  5 |  94 |   0 |-3.364452e+04 |-3.744600e+04 |  11.30%| unknown
 36.8s|     1 |     0 | 64140 |     - |   325M |   0 |1534 |4650 |4649 |  34 |  6 |  94 |   0 |-3.371187e+04 |-3.744600e+04 |  11.08%| unknown
 37.4s|     1 |     0 | 64383 |     - |   325M |   0 |1534 |4643 |4657 |  42 |  7 |  94 |   0 |-3.377736e+04 |-3.744600e+04 |  10.86%| unknown
 38.1s|     1 |     0 | 64533 |     - |   326M |   0 |1534 |4632 |4665 |  50 |  8 |  94 |   0 |-3.380401e+04 |-3.744600e+04 |  10.77%| unknown
 38.6s|     1 |     0 | 64693 |     - |   329M |   0 |1534 |4624 |4673 |  58 |  9 |  94 |   0 |-3.383453e+04 |-3.744600e+04 |  10.67%| unknown
 39.5s|     1 |     0 | 64953 |     - |   330M |   0 |1534 |4618 |4683 |  68 | 10 |  94 |   0 |-3.388106e+04 |-3.744600e+04 |  10.52%| unknown
 39.8s|     1 |     0 | 65121 |     - |   331M |   0 |1534 |4618 |4691 |  76 | 11 |  94 |   0 |-3.390020e+04 |-3.744600e+04 |  10.46%| unknown
 40.1s|     1 |     0 | 65238 |     - |   331M |   0 |1534 |4618 |4671 |  82 | 12 |  94 |   0 |-3.392310e+04 |-3.744600e+04 |  10.38%| unknown
 40.4s|     1 |     0 | 65317 |     - |   332M |   0 |1534 |4618 |4679 |  90 | 13 |  94 |   0 |-3.393767e+04 |-3.744600e+04 |  10.34%| unknown
 40.7s|     1 |     0 | 65441 |     - |   332M |   0 |1534 |4616 |4685 |  96 | 14 |  94 |   0 |-3.395964e+04 |-3.744600e+04 |  10.27%| unknown
 time | node  | left  |LP iter|LP it/n|mem/heur|mdpt |vars |cons |rows |cuts |sepa|confs|strbr|  dualbound   | primalbound  |  gap   | compl. 
 41.1s|     1 |     0 | 65548 |     - |   333M |   0 |1534 |4615 |4692 | 103 | 15 |  94 |   0 |-3.397416e+04 |-3.744600e+04 |  10.22%| unknown
 41.4s|     1 |     0 | 65640 |     - |   334M |   0 |1534 |4615 |4698 | 109 | 16 |  94 |   0 |-3.399136e+04 |-3.744600e+04 |  10.16%| unknown
 41.7s|     1 |     0 | 65731 |     - |   334M |   0 |1534 |4615 |4702 | 113 | 17 |  94 |   0 |-3.400807e+04 |-3.744600e+04 |  10.11%| unknown
 42.0s|     1 |     0 | 65835 |     - |   335M |   0 |1534 |4615 |4670 | 119 | 18 |  94 |   0 |-3.402639e+04 |-3.744600e+04 |  10.05%| unknown
 42.3s|     1 |     0 | 65920 |     - |   335M |   0 |1534 |4615 |4675 | 124 | 19 |  94 |   0 |-3.403558e+04 |-3.744600e+04 |  10.02%| unknown
 42.7s|     1 |     0 | 65995 |     - |   336M |   0 |1534 |4615 |4680 | 129 | 20 |  94 |   0 |-3.404462e+04 |-3.744600e+04 |   9.99%| unknown
 43.0s|     1 |     0 | 66107 |     - |   336M |   0 |1534 |4615 |4684 | 133 | 21 |  94 |   0 |-3.405651e+04 |-3.744600e+04 |   9.95%| unknown
 43.3s|     1 |     0 | 66211 |     - |   336M |   0 |1534 |4615 |4688 | 137 | 22 |  94 |   0 |-3.406371e+04 |-3.744600e+04 |   9.93%| unknown
 43.6s|     1 |     0 | 66286 |     - |   336M |   0 |1534 |4615 |4693 | 142 | 23 |  94 |   0 |-3.407179e+04 |-3.744600e+04 |   9.90%| unknown
 43.9s|     1 |     0 | 66338 |     - |   336M |   0 |1534 |4615 |4671 | 147 | 24 |  94 |   0 |-3.407899e+04 |-3.744600e+04 |   9.88%| unknown
 44.2s|     1 |     0 | 66404 |     - |   336M |   0 |1534 |4615 |4674 | 150 | 25 |  94 |   0 |-3.408396e+04 |-3.744600e+04 |   9.86%| unknown
 44.5s|     1 |     0 | 66503 |     - |   336M |   0 |1534 |4615 |4681 | 157 | 26 |  94 |   0 |-3.409999e+04 |-3.744600e+04 |   9.81%| unknown
 44.8s|     1 |     0 | 66564 |     - |   336M |   0 |1534 |4615 |4687 | 163 | 27 |  94 |   0 |-3.410444e+04 |-3.744600e+04 |   9.80%| unknown
 45.1s|     1 |     0 | 66606 |     - |   336M |   0 |1534 |4615 |4692 | 168 | 28 |  94 |   0 |-3.410806e+04 |-3.744600e+04 |   9.79%| unknown
 45.4s|     1 |     0 | 66651 |     - |   336M |   0 |1534 |4615 |4696 | 172 | 29 |  94 |   0 |-3.411068e+04 |-3.744600e+04 |   9.78%| unknown
 time | node  | left  |LP iter|LP it/n|mem/heur|mdpt |vars |cons |rows |cuts |sepa|confs|strbr|  dualbound   | primalbound  |  gap   | compl. 
 45.7s|     1 |     0 | 66673 |     - |   336M |   0 |1534 |4615 |4677 | 175 | 30 |  94 |   0 |-3.411126e+04 |-3.744600e+04 |   9.78%| unknown
 46.1s|     1 |     0 | 66754 |     - |   336M |   0 |1534 |4615 |4682 | 180 | 31 |  94 |   0 |-3.411729e+04 |-3.744600e+04 |   9.76%| unknown
 46.4s|     1 |     0 | 66806 |     - |   336M |   0 |1534 |4615 |4686 | 184 | 32 |  94 |   0 |-3.412182e+04 |-3.744600e+04 |   9.74%| unknown
 46.7s|     1 |     0 | 66833 |     - |   336M |   0 |1534 |4615 |4689 | 187 | 33 |  94 |   0 |-3.412363e+04 |-3.744600e+04 |   9.74%| unknown
 47.0s|     1 |     0 | 66872 |     - |   336M |   0 |1534 |4615 |4695 | 193 | 34 |  94 |   0 |-3.412668e+04 |-3.744600e+04 |   9.73%| unknown
 47.3s|     1 |     0 | 66917 |     - |   336M |   0 |1534 |4615 |4701 | 199 | 35 |  94 |   0 |-3.413084e+04 |-3.744600e+04 |   9.71%| unknown
 47.6s|     1 |     0 | 66963 |     - |   336M |   0 |1534 |4615 |4681 | 203 | 36 |  94 |   0 |-3.413415e+04 |-3.744600e+04 |   9.70%| unknown
 47.9s|     1 |     0 | 67019 |     - |   336M |   0 |1534 |4615 |4689 | 211 | 37 |  94 |   0 |-3.413912e+04 |-3.744600e+04 |   9.69%| unknown
 48.2s|     1 |     0 | 67046 |     - |   336M |   0 |1534 |4615 |4693 | 215 | 38 |  94 |   0 |-3.414016e+04 |-3.744600e+04 |   9.68%| unknown
 48.5s|     1 |     0 | 67071 |     - |   336M |   0 |1534 |4615 |4696 | 218 | 39 |  94 |   0 |-3.414117e+04 |-3.744600e+04 |   9.68%| unknown
 48.8s|     1 |     0 | 67100 |     - |   336M |   0 |1534 |4615 |4699 | 221 | 40 |  94 |   0 |-3.414324e+04 |-3.744600e+04 |   9.67%| unknown
 49.1s|     1 |     0 | 67135 |     - |   337M |   0 |1534 |4615 |4702 | 224 | 41 |  94 |   0 |-3.414468e+04 |-3.744600e+04 |   9.67%| unknown
 49.4s|     1 |     0 | 67166 |     - |   337M |   0 |1534 |4615 |4684 | 227 | 42 |  94 |   0 |-3.414651e+04 |-3.744600e+04 |   9.66%| unknown
 49.7s|     1 |     0 | 67204 |     - |   337M |   0 |1534 |4615 |4686 | 229 | 43 |  94 |   0 |-3.414787e+04 |-3.744600e+04 |   9.66%| unknown
 50.0s|     1 |     0 | 67243 |     - |   337M |   0 |1534 |4615 |4693 | 236 | 44 |  94 |   0 |-3.414961e+04 |-3.744600e+04 |   9.65%| unknown
 time | node  | left  |LP iter|LP it/n|mem/heur|mdpt |vars |cons |rows |cuts |sepa|confs|strbr|  dualbound   | primalbound  |  gap   | compl. 
 50.3s|     1 |     0 | 67277 |     - |   337M |   0 |1534 |4615 |4698 | 241 | 45 |  94 |   0 |-3.415223e+04 |-3.744600e+04 |   9.64%| unknown
 50.5s|     1 |     0 | 67296 |     - |   337M |   0 |1534 |4615 |4702 | 245 | 46 |  94 |   0 |-3.415270e+04 |-3.744600e+04 |   9.64%| unknown
 50.8s|     1 |     0 | 67318 |     - |   337M |   0 |1534 |4615 |4704 | 247 | 47 |  94 |   0 |-3.415311e+04 |-3.744600e+04 |   9.64%| unknown
 55.1s|     1 |     2 | 70853 |     - |   337M |   0 |1534 |4624 |4704 | 247 | 47 | 103 |  19 |-3.441740e+04 |-3.744600e+04 |   8.80%| unknown
d65.4s|     9 |    10 | 75327 |1539.1 |fracdivi|   4 |1534 |4624 |4633 |   0 |  1 | 103 | 196 |-3.514025e+04 |-3.720900e+04 |   5.89%| unknown
o72.6s|    31 |    32 | 78961 | 564.1 |rootsold|  21 |1534 |4621 |4643 | 260 |  1 | 103 | 459 |-3.518844e+04 |-3.648100e+04 |   3.67%| unknown
d72.8s|    37 |    37 | 79259 | 480.6 |guideddi|  21 |1534 |4621 |4643 |   0 |  1 | 103 | 466 |-3.518844e+04 |-3.636100e+04 |   3.33%|  19.12%
r72.8s|    40 |    38 | 79279 | 445.1 |rounding|  21 |1534 |4621 |4643 | 260 |  0 | 103 | 467 |-3.518844e+04 |-3.629600e+04 |   3.15%|  19.14%
*76.6s|    54 |    44 | 81613 | 372.9 |    LP  |  28 |1534 |4670 |4643 | 260 |  2 | 154 | 595 |-3.523564e+04 |-3.629500e+04 |   3.01%|  27.82%
r76.7s|    58 |    44 | 81644 | 347.7 |rounding|  28 |1534 |4679 |4643 | 260 |  0 | 163 | 597 |-3.523564e+04 |-3.629300e+04 |   3.00%|  27.85%
*76.7s|    60 |    46 | 81678 | 336.7 |    LP  |  28 |1534 |4679 |4643 | 260 |  2 | 163 | 597 |-3.523564e+04 |-3.628600e+04 |   2.98%|  27.90%
r76.9s|    83 |    47 | 81823 | 245.2 |rounding|  28 |1534 |4687 |4643 | 260 |  0 | 171 | 608 |-3.523564e+04 |-3.626800e+04 |   2.93%|  27.91%
 78.8s|   100 |    54 | 83620 | 221.4 |   343M |  28 |1534 |4695 |4676 | 309 |  8 | 183 | 633 |-3.537920e+04 |-3.626800e+04 |   2.51%|  29.75%
r79.2s|   125 |    57 | 84195 | 181.8 |rounding|  28 |1534 |4695 |4643 | 309 |  0 | 183 | 640 |-3.537920e+04 |-3.626700e+04 |   2.51%|  29.82%
r79.4s|   165 |    54 | 84494 | 139.5 |rounding|  28 |1534 |4695 |4643 | 309 |  0 | 183 | 640 |-3.537920e+04 |-3.626500e+04 |   2.50%|  30.02%
 time | node  | left  |LP iter|LP it/n|mem/heur|mdpt |vars |cons |rows |cuts |sepa|confs|strbr|  dualbound   | primalbound  |  gap   | compl. 
*79.5s|   182 |    51 | 85019 | 129.4 |    LP  |  28 |1534 |4695 |4643 | 309 |  2 | 183 | 640 |-3.541591e+04 |-3.626100e+04 |   2.39%|  35.41%
 79.6s|   200 |    57 | 85095 | 118.1 |   343M |  33 |1534 |4695 |4643 | 309 |  0 | 183 | 640 |-3.541591e+04 |-3.626100e+04 |   2.39%|  35.42%
 80.4s|   300 |    85 | 86851 |  84.6 |   345M |  37 |1534 |4709 |4643 | 309 |  9 | 198 | 647 |-3.542882e+04 |-3.626100e+04 |   2.35%|  36.66%
 81.4s|   400 |   101 | 88912 |  68.6 |   346M |  37 |1534 |4719 |4643 | 309 |  0 | 213 | 656 |-3.563455e+04 |-3.626100e+04 |   1.76%|  40.77%
L81.6s|   401 |    24 | 89066 |  68.8 |    rins|  37 |1534 |4718 |4636 | 309 |  1 | 213 | 656 |-3.563591e+04 |-3.607100e+04 |   1.22%|  42.71%
i81.6s|   402 |    20 | 89287 |  69.2 |  oneopt|  37 |1534 |4718 |4634 | 309 |  2 | 213 | 656 |-3.563591e+04 |-3.597900e+04 |   0.96%|  46.69%
r83.3s|   432 |    32 | 91681 |  69.9 |rounding|  37 |1534 |4733 |4663 | 358 |  0 | 228 | 666 |-3.563612e+04 |-3.596100e+04 |   0.91%|  47.64%
r83.3s|   434 |    33 | 91707 |  69.7 |rounding|  37 |1534 |4733 |4663 | 358 |  0 | 228 | 666 |-3.563612e+04 |-3.595900e+04 |   0.91%|  47.71%
r83.8s|   466 |    64 | 93197 |  68.1 |rounding|  37 |1534 |4759 |4663 | 358 |  0 | 256 | 666 |-3.563612e+04 |-3.595200e+04 |   0.89%|  47.85%
r83.9s|   472 |    64 | 93250 |  67.3 |rounding|  37 |1534 |4771 |4663 | 358 |  0 | 268 | 672 |-3.563612e+04 |-3.594300e+04 |   0.86%|  47.87%
 84.1s|   500 |    74 | 93687 |  64.4 |   350M |  37 |1534 |4774 |4663 | 358 |  2 | 272 | 673 |-3.563612e+04 |-3.594300e+04 |   0.86%|  48.11%
 85.2s|   600 |   101 | 96419 |  58.2 |   353M |  37 |1534 |4800 |4663 | 358 |  1 | 303 | 688 |-3.565746e+04 |-3.594300e+04 |   0.80%|  53.21%
r85.3s|   604 |    95 | 96449 |  57.9 |rounding|  37 |1534 |4800 |4663 | 358 |  0 | 303 | 688 |-3.565746e+04 |-3.594100e+04 |   0.80%|  53.23%
r86.0s|   648 |   101 | 96960 |  54.8 |rounding|  37 |1534 |4841 |4663 | 358 |  0 | 349 | 728 |-3.565800e+04 |-3.594000e+04 |   0.79%|  55.62%
 87.6s|   700 |   105 | 98077 |  52.3 |   361M |  37 |1534 |4895 |4664 | 402 |  1 | 408 | 778 |-3.565842e+04 |-3.594000e+04 |   0.79%|  56.26%
 time | node  | left  |LP iter|LP it/n|mem/heur|mdpt |vars |cons |rows |cuts |sepa|confs|strbr|  dualbound   | primalbound  |  gap   | compl. 
*88.1s|   770 |   110 | 99540 |  49.4 |    LP  |  39 |1534 |4901 |4664 | 402 |  2 | 425 | 778 |-3.568136e+04 |-3.593800e+04 |   0.72%|  56.47%
 89.1s|   800 |   110 |100954 |  49.3 |   366M |  39 |1534 |4862 |4664 | 447 |  0 | 425 | 786 |-3.568565e+04 |-3.593800e+04 |   0.71%|  57.21%
 89.8s|   900 |   126 |103497 |  46.7 |   368M |  39 |1534 |4846 |4664 | 497 |  1 | 434 | 786 |-3.571299e+04 |-3.593800e+04 |   0.63%|  57.81%
L90.7s|   971 |    28 |104381 |  44.2 |    rins|  40 |1534 |4885 |4647 | 499 |  1 | 518 | 834 |-3.572537e+04 |-3.584400e+04 |   0.33%|  61.96%
 90.9s|  1000 |    35 |104770 |  43.3 |   370M |  40 |1534 |4884 |4650 | 504 |  0 | 518 | 837 |-3.572537e+04 |-3.584400e+04 |   0.33%|  63.49%
 91.7s|  1100 |    55 |106238 |  40.7 |   372M |  40 |1534 |4889 |4650 | 504 |  2 | 539 | 853 |-3.573093e+04 |-3.584400e+04 |   0.32%|  70.06%
 92.3s|  1200 |    55 |107466 |  38.3 |   372M |  40 |1534 |4861 |4650 | 506 |  0 | 543 | 858 |-3.573908e+04 |-3.584400e+04 |   0.29%|  74.54%
 92.8s|  1300 |    45 |108492 |  36.2 |   372M |  40 |1534 |4811 |4650 | 506 |  0 | 556 | 866 |-3.574185e+04 |-3.584400e+04 |   0.29%|  80.55%
 94.2s|  1400 |    41 |110256 |  34.8 |   375M |  40 |1534 |4820 |4650 | 523 |  0 | 587 | 955 |-3.575598e+04 |-3.584400e+04 |   0.25%|  84.22%
 95.1s|  1500 |    43 |111800 |  33.5 |   378M |  40 |1534 |4851 |4650 | 526 |  1 | 641 | 997 |-3.576309e+04 |-3.584400e+04 |   0.23%|  86.18%
 96.1s|  1600 |    35 |113404 |  32.5 |   378M |  40 |1534 |4864 |4650 | 531 |  2 | 681 |1050 |-3.577465e+04 |-3.584400e+04 |   0.19%|  90.40%
L96.7s|  1668 |    27 |114339 |  31.7 |    rins|  40 |1534 |4852 |4650 | 537 |  1 | 697 |1077 |-3.577609e+04 |-3.584200e+04 |   0.18%|  92.04%
 97.1s|  1700 |    33 |114668 |  31.3 |   378M |  40 |1534 |4862 |4649 | 538 |  3 | 710 |1099 |-3.577609e+04 |-3.584200e+04 |   0.18%|  92.10%
 97.9s|  1800 |    27 |115786 |  30.2 |   378M |  40 |1534 |4885 |4649 | 541 |  0 | 736 |1137 |-3.577913e+04 |-3.584200e+04 |   0.18%|  93.81%
 98.7s|  1900 |    21 |117007 |  29.2 |   379M |  40 |1534 |4879 |4649 | 550 |  2 | 775 |1169 |-3.580625e+04 |-3.584200e+04 |   0.10%|  96.75%
 time | node  | left  |LP iter|LP it/n|mem/heur|mdpt |vars |cons |rows |cuts |sepa|confs|strbr|  dualbound   | primalbound  |  gap   | compl. 
 99.8s|  2000 |    33 |118258 |  28.4 |   379M |  40 |1534 |4903 |4648 | 552 |  2 | 831 |1238 |-3.581674e+04 |-3.584200e+04 |   0.07%|  98.00%
  101s|  2100 |    15 |119384 |  27.6 |   379M |  40 |1534 |4933 |4648 | 554 |  2 | 885 |1279 |-3.582578e+04 |-3.584200e+04 |   0.05%|  98.92%
  101s|  2200 |    15 |120324 |  26.7 |   379M |  40 |1534 |4916 |4649 | 555 |  0 | 902 |1300 |-3.582757e+04 |-3.584200e+04 |   0.04%|  99.29%

SCIP Status        : problem is solved [optimal solution found]
Solving Time (sec) : 101.64
Solving Nodes      : 2235 (total of 2236 nodes in 2 runs)
Primal Bound       : -3.58420000000000e+04 (129 solutions)
Dual Bound         : -3.58420000000000e+04
Gap                : 0.00 %
Solve Status: optimal
Solve Time: 101.65 seconds
